max 8
p edge 50 168
e 1 2
e 1 3
e 1 4
e 1 5
e 1 6
e 1 7
e 1 8
e 2 3
e 2 4
e 2 5
e 2 6
e 2 7
e 2 8
e 3 4
e 3 5
e 3 6
e 3 7
e 3 8
e 4 5
e 4 6
e 4 7
e 4 8
e 5 6
e 5 7
e 5 8
e 6 7
e 6 8
e 7 8
e 9 10
e 9 11
e 9 12
e 9 13
e 9 14
e 9 15
e 9 16
e 10 11
e 10 12
e 10 13
e 10 14
e 10 15
e 10 16
e 11 12
e 11 13
e 11 14
e 11 15
e 11 16
e 12 13
e 12 14
e 12 15
e 12 16
e 13 14
e 13 15
e 13 16
e 14 15
e 14 16
e 15 16
e 17 18
e 17 19
e 17 20
e 17 21
e 17 22
e 17 23
e 17 24
e 18 19
e 18 20
e 18 21
e 18 22
e 18 23
e 18 24
e 19 20
e 19 21
e 19 22
e 19 23
e 19 24
e 20 21
e 20 22
e 20 23
e 20 24
e 21 22
e 21 23
e 21 24
e 22 23
e 22 24
e 23 24
e 25 26
e 25 27
e 25 28
e 25 29
e 25 30
e 25 31
e 25 32
e 26 27
e 26 28
e 26 29
e 26 30
e 26 31
e 26 32
e 27 28
e 27 29
e 27 30
e 27 31
e 27 32
e 28 29
e 28 30
e 28 31
e 28 32
e 29 30
e 29 31
e 29 32
e 30 31
e 30 32
e 31 32
e 33 34
e 33 35
e 33 36
e 33 37
e 33 38
e 33 39
e 33 40
e 34 35
e 34 36
e 34 37
e 34 38
e 34 39
e 34 40
e 35 36
e 35 37
e 35 38
e 35 39
e 35 40
e 36 37
e 36 38
e 36 39
e 36 40
e 37 38
e 37 39
e 37 40
e 38 39
e 38 40
e 39 40
e 41 42
e 41 43
e 41 44
e 41 45
e 41 46
e 41 47
e 41 48
e 42 43
e 42 44
e 42 45
e 42 46
e 42 47
e 42 48
e 43 44
e 43 45
e 43 46
e 43 47
e 43 48
e 44 45
e 44 46
e 44 47
e 44 48
e 45 46
e 45 47
e 45 48
e 46 47
e 46 48
e 47 48